5

    0   3   5   5   4
    3   0   4   5   5
    5   4   0   3   5
    5   5   3   0   3
    4   5   5   3   0
    
    0   4   5   6   4
    5   0   6   4   5
    6   4   0   5   6
    4   5   6   0   4
    5   6   4   5   0